\ This file has been generated by DOcplex
\ ENCODING=ISO-8859-1
\Problem name: linear_programing_AGV

Minimize
 obj: 0.100000000000 t_out_0_s2 + 0.100000000000 t_out_1_s2
      + 0.100000000000 t_out_2_s2 + 0.100000000000 t_out_4_s3
Subject To
 c1: - t_in_0_s1 + t_out_0_s0 <= -6
 c2: - t_in_0_s2 + t_out_0_s1 <= -6
 c3: - t_in_1_s2 + t_out_1_s1 <= -6
 c4: - t_in_2_s3 + t_out_2_s4 <= -5
 c5: - t_in_2_s2 + t_out_2_s3 <= 0
 c6: - t_in_4_s3 + t_out_4_s2 <= 0
 c7: t_out_0_s1 - t_out_1_s1 - 28 y_1_0_s1 <= -2
 c8: - t_out_0_s1 + t_out_1_s1 - 28 y_0_1_s1 <= -2
 c9: - t_in_1_s1 + t_out_0_s1 - 28 y_1_0_s1 <= 0
 c10: - t_in_0_s1 + t_out_1_s1 - 28 y_0_1_s1 <= 0
 c11: - t_in_1_s2 + t_out_0_s2 - 28 y_1_0_s2 <= 0
 c12: - t_in_2_s2 + t_out_0_s2 - 28 y_2_0_s2 <= 0
 c13: - t_in_4_s2 + t_out_0_s2 - 28 y_4_0_s2 <= 0
 c14: - t_in_0_s2 + t_out_1_s2 - 28 y_0_1_s2 <= 0
 c15: - t_in_2_s2 + t_out_1_s2 - 28 y_2_1_s2 <= 0
 c16: - t_in_4_s2 + t_out_1_s2 - 28 y_4_1_s2 <= 0
 c17: - t_in_0_s2 + t_out_2_s2 - 28 y_0_2_s2 <= 0
 c18: - t_in_1_s2 + t_out_2_s2 - 28 y_1_2_s2 <= 0
 c19: - t_in_4_s2 + t_out_2_s2 - 28 y_4_2_s2 <= 0
 c20: - t_in_0_s2 + t_out_4_s2 - 28 y_0_4_s2 <= 0
 c21: - t_in_1_s2 + t_out_4_s2 - 28 y_1_4_s2 <= 0
 c22: - t_in_2_s2 + t_out_4_s2 - 28 y_2_4_s2 <= 0
 c23: - t_in_4_s3 + t_out_2_s3 - 28 y_4_2_s3 <= 0
 c24: - t_in_2_s3 + t_out_4_s3 - 28 y_2_4_s3 <= 0
 c25: t_in_0_s0 - t_out_0_s0 <= -2
 c26: t_in_0_s1 - t_out_0_s1 <= -2
 c27: t_in_0_s2 - t_out_0_s2 <= -2
 c28: t_in_1_s1 - t_out_1_s1 <= -2
 c29: t_in_1_s2 - t_out_1_s2 <= -2
 c30: t_in_2_s4 - t_out_2_s4 <= -2
 c31: t_in_2_s3 - t_out_2_s3 <= -2
 c32: t_in_2_s2 - t_out_2_s2 <= -2
 c33: t_in_4_s2 - t_out_4_s2 <= -2
 c34: t_in_4_s3 - t_out_4_s3 <= -2
 c35: y_0_1_s1 + y_1_0_s1 = 1
 c36: y_0_1_s2 + y_1_0_s2 = 1
 c37: y_0_2_s2 + y_2_0_s2 = 1
 c38: y_0_4_s2 + y_4_0_s2 = 1
 c39: y_1_2_s2 + y_2_1_s2 = 1
 c40: y_1_4_s2 + y_4_1_s2 = 1
 c41: y_2_4_s2 + y_4_2_s2 = 1
 c42: y_2_4_s3 + y_4_2_s3 = 1
 c43: y_0_1_s1 - y_0_1_s2 = 0
 c44: y_1_0_s1 - y_1_0_s2 = 0

Bounds
       t_in_0_s0 <= 10
 8 <= t_in_0_s1 <= 18
 16 <= t_in_0_s2 <= 26
 8 <= t_in_1_s1 <= 18
 16 <= t_in_1_s2 <= 26
 8 <= t_in_2_s4 <= 18
 15 <= t_in_2_s3 <= 25
 17 <= t_in_2_s2 <= 27
 15 <= t_in_4_s2 <= 25
 17 <= t_in_4_s3 <= 27
 2 <= t_out_0_s0 <= 12
 10 <= t_out_0_s1 <= 20
 18 <= t_out_0_s2 <= 28
 10 <= t_out_1_s1 <= 20
 18 <= t_out_1_s2 <= 28
 10 <= t_out_2_s4 <= 20
 17 <= t_out_2_s3 <= 27
 19 <= t_out_2_s2 <= 29
 17 <= t_out_4_s2 <= 27
 19 <= t_out_4_s3 <= 29
 0 <= y_0_1_s1 <= 1
 0 <= y_1_0_s1 <= 1
 0 <= y_0_1_s2 <= 1
 0 <= y_0_2_s2 <= 1
 0 <= y_0_4_s2 <= 1
 0 <= y_1_0_s2 <= 1
 0 <= y_1_2_s2 <= 1
 0 <= y_1_4_s2 <= 1
 0 <= y_2_0_s2 <= 1
 0 <= y_2_1_s2 <= 1
 0 <= y_2_4_s2 <= 1
 0 <= y_4_0_s2 <= 1
 0 <= y_4_1_s2 <= 1
 0 <= y_4_2_s2 <= 1
 0 <= y_2_4_s3 <= 1
 0 <= y_4_2_s3 <= 1

Binaries
 y_0_1_s1 y_1_0_s1 y_0_1_s2 y_0_2_s2 y_0_4_s2 y_1_0_s2 y_1_2_s2 y_1_4_s2
 y_2_0_s2 y_2_1_s2 y_2_4_s2 y_4_0_s2 y_4_1_s2 y_4_2_s2 y_2_4_s3 y_4_2_s3

Generals
 t_in_0_s0 t_in_0_s1 t_in_0_s2 t_in_1_s1 t_in_1_s2 t_in_2_s4 t_in_2_s3 t_in_2_s2
 t_in_4_s2 t_in_4_s3 t_out_0_s0 t_out_0_s1 t_out_0_s2 t_out_1_s1 t_out_1_s2
 t_out_2_s4 t_out_2_s3 t_out_2_s2 t_out_4_s2 t_out_4_s3
End
